outputs/case_416.model.txt
capital_adequacy_ratio = 100
improvement_plan_submitted = False
capital_increase_completed = False
improvement_plan_not_improved = False
net_worth_ratio = 3/2
capital_increase_within_deadline = False
profit_loss_net_worth_accelerated_deterioration = False
net_worth = 100
improvement_plan_approved = False
cannot_pay_debt = False
cannot_fulfill_contract = False
risk_to_insured_interest = False
license_permitted = True
supervisory_measures_applicable = False
financial_or_business_deterioration = False
supervisory_measures_executed = False
capital_level_significant_insufficient = True
improvement_plan_accelerated_deterioration = False
insurance_business_not_permitted = False
capital_level = 3
improvement_plan_not_improved_after_guidance = False
capital_level_insufficient = False
business_license_obtained = True
premium_false_accounting = False
deposit_guarantee_completed = True
premium_collection_compliant = True
capital_level_severe_insufficient = False
premium_price_error = False
improvement_plan_submitted_and_approved = False
penalty = False
capital_level_severe_measures_completed = False
capital_level_adequate = False
capital_level_severe_measures_within_deadline = False
registration_completed = True
premium_commission_rebate = False
insurance_business_permitted = True